NAME : rc208.1.5090406.tour
COMMENT : Length = 5090406
COMMENT : Found by LKH [Keld Helsgaun] Tue May  2 05:20:29 2017
TYPE : TOUR
DIMENSION : 28
TOUR_SECTION
1
26
14
22
19
28
18
15
11
10
7
5
3
2
4
6
8
9
20
25
16
24
12
23
13
17
27
21
-1
EOF
